* ENCODING=ISO-8859-1
NAME          CPLEX
ROWS
 N  obj1    
 G  c1      
 G  c2      
 G  c3      
 G  c4      
 G  c5      
 G  c6      
 G  c7      
 G  c8      
 G  c9      
 G  c10     
 G  c11     
 G  c12     
 G  c13     
 G  c14     
 G  c15     
 G  c16     
 G  c17     
 G  c18     
 G  c19     
 G  c20     
 G  c21     
 G  c22     
 G  c23     
 G  c24     
 G  c25     
 G  c26     
 G  c27     
 G  c28     
 G  c29     
 G  c30     
 G  c31     
 G  c32     
 G  c33     
 G  c34     
 G  c35     
 G  c36     
 G  c37     
 G  c38     
 G  c39     
 G  c40     
COLUMNS
    MARK0000  'MARKER'                 'INTORG'
    x1        obj1                            1
    x1        c11                           105
    x1        c23                           763
    x1        c29                           796
    x1        c36                           175
    x1        c37                           620
    x2        obj1                            1
    x2        c5                            262
    x2        c20                           806
    x2        c22                           856
    x2        c36                           610
    x3        obj1                            1
    x3        c3                            640
    x3        c6                            433
    x3        c40                           990
    x4        obj1                            1
    x4        c5                            202
    x4        c8                            694
    x4        c14                           332
    x4        c15                           521
    x4        c22                           529
    x4        c25                           584
    x4        c30                           220
    x4        c35                           763
    x4        c39                           389
    x5        obj1                            1
    x5        c4                            908
    x5        c17                           645
    x5        c25                           606
    x5        c30                           641
    x5        c33                           318
    x6        obj1                            1
    x6        c5                            286
    x6        c23                           646
    x6        c30                           875
    x7        obj1                            1
    x7        c5                            984
    x7        c9                           1000
    x7        c15                           887
    x7        c25                           769
    x7        c29                           442
    x7        c37                           564
    x8        obj1                            1
    x8        c3                            462
    x8        c16                           262
    x8        c35                           168
    x9        obj1                            1
    x9        c4                            313
    x9        c11                           329
    x9        c12                           368
    x9        c25                           431
    x9        c28                           150
    x9        c29                           269
    x9        c30                           910
    x10       obj1                            1
    x10       c8                            799
    x10       c10                           422
    x10       c17                           526
    x10       c32                           670
    x10       c33                           379
    x10       c38                           841
    x11       obj1                            1
    x11       c8                            546
    x11       c21                           474
    x11       c29                           327
    x11       c38                           860
    x12       obj1                            1
    x12       c4                            846
    x12       c7                            615
    x12       c10                           653
    x12       c30                           599
    x13       obj1                            1
    x13       c6                            268
    x13       c16                           285
    x13       c29                           599
    x14       obj1                            1
    x14       c11                           102
    x14       c13                           876
    x14       c20                           571
    x15       obj1                            1
    x15       c13                           614
    x15       c19                           560
    x15       c34                           956
    x16       obj1                            1
    x16       c3                            452
    x16       c16                           425
    x16       c34                           197
    x16       c35                           420
    x16       c38                           817
    x17       obj1                            1
    x17       c12                           731
    x17       c26                           326
    x17       c38                           531
    x18       obj1                            1
    x18       c4                            811
    x18       c10                           382
    x18       c11                           347
    x18       c21                           885
    x18       c27                           797
    x19       obj1                            1
    x19       c3                            645
    x19       c30                           714
    x20       obj1                            1
    x20       c7                            536
    x20       c20                           651
    x20       c35                           847
    x21       obj1                            1
    x21       c3                            840
    x21       c6                            638
    x21       c13                           196
    x21       c21                           117
    x21       c32                           895
    x21       c33                           958
    x22       obj1                            1
    x22       c20                           785
    x22       c33                           733
    x23       obj1                            1
    x23       c12                           642
    x23       c16                           823
    x23       c24                           165
    x24       obj1                            1
    x24       c4                            129
    x24       c5                            674
    x24       c8                            198
    x24       c14                           366
    x24       c39                           854
    x25       obj1                            1
    x25       c18                           727
    x25       c30                           592
    x26       obj1                            1
    x26       c6                            620
    x26       c21                           529
    x26       c23                           912
    x26       c31                           434
    x27       obj1                            1
    x27       c5                            633
    x27       c16                           362
    x27       c19                           273
    x28       obj1                            1
    x28       c15                           485
    x28       c21                           554
    x28       c28                           412
    x29       obj1                            1
    x29       c6                            508
    x29       c13                           463
    x29       c25                           453
    x29       c27                           618
    x29       c32                           682
    x30       obj1                            1
    x30       c4                            269
    x30       c7                            808
    x30       c10                           835
    x30       c20                           150
    x30       c24                           993
    x30       c29                           557
    x30       c35                           362
    x30       c36                           911
    x30       c37                           495
    x31       obj1                            1
    x31       c8                            213
    x31       c21                           286
    x32       obj1                            1
    x32       c2                            202
    x32       c7                            794
    x32       c9                            143
    x32       c17                           106
    x32       c21                           442
    x32       c32                           139
    x33       obj1                            1
    x33       c16                           399
    x33       c22                           486
    x34       obj1                            1
    x34       c8                            643
    x34       c14                           757
    x34       c16                           115
    x34       c19                           877
    x34       c22                           515
    x35       obj1                            1
    x35       c21                           788
    x35       c32                           727
    x35       c38                           938
    x36       obj1                            1
    x36       c31                           300
    x37       obj1                            1
    x37       c4                            710
    x37       c7                            643
    x37       c9                            801
    x37       c12                           256
    x37       c18                           286
    x37       c23                           120
    x37       c25                           963
    x37       c38                           139
    x38       obj1                            1
    x38       c5                            198
    x38       c11                           567
    x38       c20                           925
    x39       obj1                            1
    x39       c3                            753
    x39       c10                           735
    x39       c36                           382
    x40       obj1                            1
    x40       c12                           960
    x40       c13                           661
    x40       c21                           141
    x41       obj1                            1
    x41       c8                            423
    x42       obj1                            1
    x42       c6                            532
    x42       c8                            905
    x42       c15                           525
    x42       c26                           196
    x42       c28                           534
    x42       c39                           122
    x43       obj1                            1
    x43       c4                            146
    x43       c18                           423
    x43       c25                           665
    x43       c28                           214
    x44       obj1                            1
    x44       c7                            385
    x44       c28                           552
    x44       c39                           500
    x45       obj1                            1
    x45       c5                            644
    x45       c8                            685
    x45       c10                           132
    x45       c19                           806
    x45       c25                           890
    x45       c26                           739
    x45       c35                           950
    x46       obj1                            1
    x46       c3                            427
    x46       c15                           958
    x46       c21                           216
    x46       c24                           424
    x46       c27                           159
    x46       c29                           535
    x46       c31                           138
    x47       obj1                            1
    x47       c5                            182
    x47       c11                           410
    x47       c12                           441
    x47       c16                           173
    x47       c25                           820
    x47       c30                           317
    x48       obj1                            1
    x48       c13                           647
    x48       c29                           552
    x48       c35                           195
    x49       obj1                            1
    x49       c4                            619
    x49       c14                           595
    x49       c32                           444
    x49       c40                           664
    x50       obj1                            1
    x50       c1                            201
    x50       c4                            795
    x50       c13                           466
    x50       c23                           563
    x51       obj1                            1
    x51       c9                            897
    x51       c12                           158
    x51       c13                           562
    x51       c14                           314
    x51       c16                           581
    x51       c21                           955
    x51       c24                           756
    x52       obj1                            1
    x52       c29                           892
    x52       c31                           935
    x52       c36                           508
    x53       obj1                            1
    x53       c3                            620
    x53       c6                            588
    x53       c15                           771
    x53       c36                           522
    x54       obj1                            1
    x54       c3                            590
    x54       c4                            126
    x54       c24                           123
    x54       c35                           305
    x54       c39                           790
    x54       c40                           194
    x55       obj1                            1
    x55       c13                           440
    x55       c15                           441
    x55       c32                           879
    x56       obj1                            1
    x56       c22                           830
    x56       c38                           119
    x57       obj1                            1
    x58       obj1                            1
    x58       c5                            967
    x58       c6                            684
    x58       c15                           394
    x58       c33                           495
    x58       c36                           955
    x59       obj1                            1
    x59       c28                           113
    x59       c29                           806
    x59       c34                           351
    x60       obj1                            1
    x60       c10                           501
    x60       c11                           943
    x60       c12                           637
    x60       c13                           489
    x60       c33                           624
    x61       obj1                            1
    x61       c1                            208
    x61       c10                           417
    x61       c28                           338
    x62       obj1                            1
    x62       c7                            696
    x62       c10                           174
    x62       c17                           356
    x62       c31                           497
    x62       c34                           487
    x62       c40                           951
    x63       obj1                            1
    x63       c1                            228
    x63       c5                            772
    x64       obj1                            1
    x64       c7                            683
    x64       c28                           418
    x64       c40                           625
    x65       obj1                            1
    x65       c9                            479
    x65       c18                           116
    x65       c21                           680
    x65       c26                           741
    x65       c28                           944
    x66       obj1                            1
    x66       c7                            505
    x66       c29                           367
    x67       obj1                            1
    x67       c7                            854
    x67       c23                           467
    x67       c25                           308
    x67       c27                           458
    x67       c36                           148
    x68       obj1                            1
    x68       c1                            602
    x68       c2                            143
    x68       c15                           882
    x69       obj1                            1
    x69       c5                            317
    x69       c35                           118
    x70       obj1                            1
    x70       c8                            567
    x70       c10                           440
    x70       c24                           422
    x71       obj1                            1
    x71       c6                            160
    x71       c14                           142
    x71       c36                           183
    x72       obj1                            1
    x72       c33                           601
    x72       c40                           414
    x73       obj1                            1
    x73       c10                           902
    x73       c11                           283
    x73       c13                           681
    x73       c33                           564
    x74       obj1                            1
    x74       c1                            289
    x74       c13                           592
    x74       c17                           831
    x74       c32                           311
    x74       c40                           452
    x75       obj1                            1
    x75       c20                           899
    x75       c31                           116
    x75       c33                           510
    x76       obj1                            1
    x76       c2                            651
    x76       c11                           411
    x76       c17                           338
    x77       obj1                            1
    x77       c1                            586
    x77       c32                           937
    x77       c35                           262
    x78       obj1                            1
    x79       obj1                            1
    x79       c2                            380
    x79       c7                            224
    x79       c15                           387
    x79       c16                           552
    x79       c37                           438
    x80       obj1                            1
    x80       c4                            201
    x80       c7                            291
    x80       c25                           308
    MARK0001  'MARKER'                 'INTEND'
RHS
    rhs       c1                           1057
    rhs       c2                            688
    rhs       c3                           2715
    rhs       c4                           2937
    rhs       c5                           3061
    rhs       c6                           2216
    rhs       c7                           3517
    rhs       c8                           2837
    rhs       c9                           1660
    rhs       c10                          2797
    rhs       c11                          1749
    rhs       c12                          2097
    rhs       c13                          3344
    rhs       c14                          1253
    rhs       c15                          3126
    rhs       c16                          1989
    rhs       c17                          1401
    rhs       c18                           776
    rhs       c19                          1258
    rhs       c20                          2394
    rhs       c21                          3034
    rhs       c22                          1608
    rhs       c23                          1736
    rhs       c24                          1442
    rhs       c25                          3399
    rhs       c26                          1001
    rhs       c27                          1016
    rhs       c28                          1838
    rhs       c29                          3071
    rhs       c30                          2434
    rhs       c31                          1210
    rhs       c32                          2842
    rhs       c33                          2591
    rhs       c34                           996
    rhs       c35                          2195
    rhs       c36                          2197
    rhs       c37                          1059
    rhs       c38                          2123
    rhs       c39                          1328
    rhs       c40                          2145
BOUNDS
 LI bnd       x1        0
 LI bnd       x2        0
 LI bnd       x3        0
 LI bnd       x4        0
 LI bnd       x5        0
 LI bnd       x6        0
 LI bnd       x7        0
 LI bnd       x8        0
 LI bnd       x9        0
 LI bnd       x10       0
 LI bnd       x11       0
 LI bnd       x12       0
 LI bnd       x13       0
 LI bnd       x14       0
 LI bnd       x15       0
 LI bnd       x16       0
 LI bnd       x17       0
 LI bnd       x18       0
 LI bnd       x19       0
 LI bnd       x20       0
 LI bnd       x21       0
 LI bnd       x22       0
 LI bnd       x23       0
 LI bnd       x24       0
 LI bnd       x25       0
 LI bnd       x26       0
 LI bnd       x27       0
 LI bnd       x28       0
 LI bnd       x29       0
 LI bnd       x30       0
 LI bnd       x31       0
 LI bnd       x32       0
 LI bnd       x33       0
 LI bnd       x34       0
 LI bnd       x35       0
 LI bnd       x36       0
 LI bnd       x37       0
 LI bnd       x38       0
 LI bnd       x39       0
 LI bnd       x40       0
 LI bnd       x41       0
 LI bnd       x42       0
 LI bnd       x43       0
 LI bnd       x44       0
 LI bnd       x45       0
 LI bnd       x46       0
 LI bnd       x47       0
 LI bnd       x48       0
 LI bnd       x49       0
 LI bnd       x50       0
 LI bnd       x51       0
 LI bnd       x52       0
 LI bnd       x53       0
 LI bnd       x54       0
 LI bnd       x55       0
 LI bnd       x56       0
 LI bnd       x57       0
 LI bnd       x58       0
 LI bnd       x59       0
 LI bnd       x60       0
 LI bnd       x61       0
 LI bnd       x62       0
 LI bnd       x63       0
 LI bnd       x64       0
 LI bnd       x65       0
 LI bnd       x66       0
 LI bnd       x67       0
 LI bnd       x68       0
 LI bnd       x69       0
 LI bnd       x70       0
 LI bnd       x71       0
 LI bnd       x72       0
 LI bnd       x73       0
 LI bnd       x74       0
 LI bnd       x75       0
 LI bnd       x76       0
 LI bnd       x77       0
 LI bnd       x78       0
 LI bnd       x79       0
 LI bnd       x80       0
ENDATA
